p edge 200 3889
e 6 1
e 9 1
e 13 1
e 21 1
e 23 1
e 31 1
e 35 1
e 41 1
e 44 1
e 46 1
e 47 1
e 49 1
e 52 1
e 55 1
e 60 1
e 61 1
e 63 1
e 66 1
e 74 1
e 79 1
e 81 1
e 102 1
e 105 1
e 113 1
e 114 1
e 115 1
e 117 1
e 121 1
e 124 1
e 147 1
e 152 1
e 160 1
e 167 1
e 174 1
e 175 1
e 178 1
e 180 1
e 183 1
e 185 1
e 191 1
e 192 1
e 198 1
e 3 2
e 9 2
e 19 2
e 30 2
e 31 2
e 45 2
e 47 2
e 50 2
e 55 2
e 67 2
e 73 2
e 85 2
e 88 2
e 91 2
e 96 2
e 103 2
e 106 2
e 110 2
e 115 2
e 122 2
e 125 2
e 137 2
e 140 2
e 152 2
e 154 2
e 160 2
e 169 2
e 172 2
e 176 2
e 178 2
e 179 2
e 180 2
e 184 2
e 186 2
e 15 3
e 23 3
e 28 3
e 40 3
e 43 3
e 44 3
e 47 3
e 51 3
e 58 3
e 69 3
e 72 3
e 78 3
e 79 3
e 80 3
e 83 3
e 85 3
e 86 3
e 90 3
e 91 3
e 92 3
e 98 3
e 112 3
e 114 3
e 135 3
e 145 3
e 152 3
e 168 3
e 169 3
e 170 3
e 172 3
e 181 3
e 185 3
e 189 3
e 193 3
e 9 4
e 16 4
e 18 4
e 19 4
e 20 4
e 27 4
e 28 4
e 36 4
e 41 4
e 45 4
e 47 4
e 50 4
e 54 4
e 58 4
e 63 4
e 66 4
e 67 4
e 71 4
e 73 4
e 75 4
e 78 4
e 84 4
e 88 4
e 90 4
e 108 4
e 110 4
e 116 4
e 132 4
e 134 4
e 135 4
e 140 4
e 144 4
e 146 4
e 148 4
e 149 4
e 150 4
e 156 4
e 165 4
e 169 4
e 176 4
e 182 4
e 192 4
e 12 5
e 13 5
e 19 5
e 20 5
e 24 5
e 26 5
e 28 5
e 32 5
e 35 5
e 36 5
e 38 5
e 46 5
e 47 5
e 51 5
e 53 5
e 55 5
e 57 5
e 59 5
e 69 5
e 71 5
e 80 5
e 85 5
e 88 5
e 92 5
e 93 5
e 98 5
e 104 5
e 109 5
e 112 5
e 114 5
e 115 5
e 122 5
e 123 5
e 127 5
e 129 5
e 137 5
e 152 5
e 153 5
e 159 5
e 162 5
e 176 5
e 181 5
e 188 5
e 8 6
e 13 6
e 24 6
e 25 6
e 35 6
e 37 6
e 83 6
e 84 6
e 85 6
e 92 6
e 100 6
e 102 6
e 106 6
e 107 6
e 120 6
e 124 6
e 135 6
e 136 6
e 139 6
e 141 6
e 147 6
e 152 6
e 154 6
e 163 6
e 164 6
e 165 6
e 179 6
e 185 6
e 198 6
e 200 6
e 15 7
e 19 7
e 26 7
e 35 7
e 39 7
e 43 7
e 44 7
e 48 7
e 53 7
e 69 7
e 73 7
e 75 7
e 76 7
e 80 7
e 92 7
e 96 7
e 99 7
e 104 7
e 125 7
e 126 7
e 127 7
e 138 7
e 141 7
e 143 7
e 145 7
e 156 7
e 162 7
e 165 7
e 167 7
e 172 7
e 177 7
e 178 7
e 183 7
e 185 7
e 186 7
e 187 7
e 193 7
e 10 8
e 12 8
e 14 8
e 20 8
e 34 8
e 47 8
e 51 8
e 52 8
e 59 8
e 60 8
e 73 8
e 75 8
e 88 8
e 92 8
e 97 8
e 99 8
e 103 8
e 106 8
e 108 8
e 114 8
e 122 8
e 136 8
e 138 8
e 142 8
e 146 8
e 149 8
e 151 8
e 155 8
e 156 8
e 158 8
e 161 8
e 167 8
e 176 8
e 177 8
e 181 8
e 194 8
e 198 8
e 20 9
e 22 9
e 23 9
e 29 9
e 33 9
e 49 9
e 54 9
e 55 9
e 59 9
e 63 9
e 66 9
e 73 9
e 83 9
e 87 9
e 98 9
e 100 9
e 102 9
e 103 9
e 105 9
e 109 9
e 111 9
e 115 9
e 121 9
e 123 9
e 138 9
e 139 9
e 148 9
e 149 9
e 150 9
e 152 9
e 162 9
e 164 9
e 166 9
e 172 9
e 174 9
e 177 9
e 182 9
e 185 9
e 190 9
e 199 9
e 15 10
e 41 10
e 42 10
e 54 10
e 57 10
e 65 10
e 71 10
e 78 10
e 86 10
e 87 10
e 88 10
e 92 10
e 99 10
e 101 10
e 102 10
e 103 10
e 104 10
e 114 10
e 121 10
e 123 10
e 126 10
e 128 10
e 129 10
e 133 10
e 138 10
e 196 10
e 16 11
e 21 11
e 28 11
e 53 11
e 59 11
e 66 11
e 67 11
e 71 11
e 80 11
e 85 11
e 87 11
e 88 11
e 97 11
e 99 11
e 103 11
e 109 11
e 113 11
e 115 11
e 116 11
e 123 11
e 125 11
e 127 11
e 140 11
e 146 11
e 153 11
e 154 11
e 155 11
e 168 11
e 171 11
e 172 11
e 174 11
e 176 11
e 180 11
e 188 11
e 194 11
e 17 12
e 22 12
e 26 12
e 27 12
e 34 12
e 39 12
e 44 12
e 52 12
e 76 12
e 80 12
e 83 12
e 85 12
e 87 12
e 91 12
e 93 12
e 102 12
e 105 12
e 110 12
e 116 12
e 124 12
e 125 12
e 140 12
e 159 12
e 162 12
e 167 12
e 169 12
e 174 12
e 176 12
e 178 12
e 182 12
e 14 13
e 25 13
e 35 13
e 38 13
e 43 13
e 49 13
e 50 13
e 57 13
e 58 13
e 74 13
e 75 13
e 78 13
e 85 13
e 86 13
e 97 13
e 101 13
e 102 13
e 103 13
e 114 13
e 121 13
e 123 13
e 125 13
e 128 13
e 130 13
e 134 13
e 136 13
e 151 13
e 158 13
e 160 13
e 163 13
e 166 13
e 167 13
e 171 13
e 175 13
e 176 13
e 188 13
e 194 13
e 199 13
e 15 14
e 22 14
e 48 14
e 49 14
e 57 14
e 65 14
e 70 14
e 72 14
e 78 14
e 98 14
e 102 14
e 104 14
e 105 14
e 110 14
e 113 14
e 117 14
e 120 14
e 121 14
e 130 14
e 134 14
e 138 14
e 140 14
e 142 14
e 146 14
e 150 14
e 153 14
e 155 14
e 163 14
e 165 14
e 170 14
e 177 14
e 178 14
e 179 14
e 184 14
e 191 14
e 193 14
e 196 14
e 198 14
e 16 15
e 29 15
e 30 15
e 32 15
e 34 15
e 35 15
e 37 15
e 43 15
e 47 15
e 51 15
e 52 15
e 63 15
e 77 15
e 96 15
e 98 15
e 101 15
e 104 15
e 107 15
e 109 15
e 112 15
e 123 15
e 126 15
e 129 15
e 131 15
e 140 15
e 144 15
e 155 15
e 160 15
e 165 15
e 170 15
e 172 15
e 176 15
e 182 15
e 184 15
e 189 15
e 195 15
e 197 15
e 20 16
e 42 16
e 58 16
e 67 16
e 72 16
e 74 16
e 78 16
e 79 16
e 86 16
e 105 16
e 118 16
e 119 16
e 121 16
e 124 16
e 128 16
e 138 16
e 142 16
e 152 16
e 155 16
e 160 16
e 162 16
e 165 16
e 166 16
e 167 16
e 174 16
e 176 16
e 179 16
e 181 16
e 183 16
e 191 16
e 196 16
e 198 16
e 28 17
e 30 17
e 32 17
e 34 17
e 40 17
e 45 17
e 48 17
e 50 17
e 55 17
e 57 17
e 58 17
e 59 17
e 65 17
e 73 17
e 74 17
e 76 17
e 85 17
e 88 17
e 100 17
e 101 17
e 104 17
e 111 17
e 116 17
e 127 17
e 142 17
e 143 17
e 152 17
e 157 17
e 158 17
e 165 17
e 168 17
e 169 17
e 184 17
e 187 17
e 188 17
e 193 17
e 27 18
e 29 18
e 34 18
e 39 18
e 43 18
e 45 18
e 48 18
e 54 18
e 63 18
e 64 18
e 68 18
e 69 18
e 74 18
e 81 18
e 84 18
e 86 18
e 88 18
e 99 18
e 102 18
e 105 18
e 109 18
e 117 18
e 129 18
e 130 18
e 133 18
e 136 18
e 137 18
e 149 18
e 160 18
e 162 18
e 163 18
e 167 18
e 176 18
e 182 18
e 21 19
e 24 19
e 25 19
e 34 19
e 38 19
e 50 19
e 52 19
e 54 19
e 59 19
e 63 19
e 71 19
e 75 19
e 76 19
e 82 19
e 87 19
e 89 19
e 92 19
e 105 19
e 114 19
e 116 19
e 118 19
e 122 19
e 124 19
e 132 19
e 149 19
e 150 19
e 151 19
e 156 19
e 175 19
e 179 19
e 181 19
e 182 19
e 183 19
e 189 19
e 194 19
e 198 19
e 200 19
e 22 20
e 30 20
e 40 20
e 47 20
e 57 20
e 64 20
e 65 20
e 72 20
e 74 20
e 75 20
e 76 20
e 81 20
e 86 20
e 92 20
e 96 20
e 99 20
e 104 20
e 114 20
e 120 20
e 127 20
e 134 20
e 141 20
e 145 20
e 153 20
e 156 20
e 186 20
e 24 21
e 25 21
e 32 21
e 34 21
e 39 21
e 44 21
e 46 21
e 49 21
e 51 21
e 52 21
e 55 21
e 56 21
e 60 21
e 62 21
e 63 21
e 71 21
e 83 21
e 84 21
e 89 21
e 91 21
e 103 21
e 110 21
e 112 21
e 116 21
e 118 21
e 122 21
e 123 21
e 126 21
e 127 21
e 142 21
e 148 21
e 154 21
e 155 21
e 170 21
e 176 21
e 188 21
e 195 21
e 200 21
e 26 22
e 31 22
e 34 22
e 37 22
e 44 22
e 47 22
e 54 22
e 65 22
e 68 22
e 84 22
e 87 22
e 89 22
e 90 22
e 106 22
e 108 22
e 109 22
e 117 22
e 119 22
e 120 22
e 121 22
e 128 22
e 129 22
e 138 22
e 143 22
e 157 22
e 158 22
e 159 22
e 162 22
e 171 22
e 180 22
e 181 22
e 183 22
e 184 22
e 194 22
e 25 23
e 26 23
e 27 23
e 30 23
e 33 23
e 34 23
e 39 23
e 42 23
e 56 23
e 58 23
e 60 23
e 67 23
e 72 23
e 84 23
e 86 23
e 90 23
e 96 23
e 101 23
e 103 23
e 108 23
e 109 23
e 120 23
e 125 23
e 139 23
e 148 23
e 149 23
e 183 23
e 192 23
e 194 23
e 198 23
e 26 24
e 27 24
e 35 24
e 48 24
e 51 24
e 52 24
e 59 24
e 60 24
e 70 24
e 72 24
e 78 24
e 92 24
e 93 24
e 95 24
e 96 24
e 101 24
e 105 24
e 107 24
e 108 24
e 112 24
e 115 24
e 116 24
e 120 24
e 123 24
e 129 24
e 131 24
e 136 24
e 139 24
e 141 24
e 142 24
e 144 24
e 145 24
e 156 24
e 171 24
e 179 24
e 190 24
e 26 25
e 29 25
e 36 25
e 40 25
e 53 25
e 54 25
e 63 25
e 64 25
e 65 25
e 66 25
e 74 25
e 78 25
e 79 25
e 89 25
e 91 25
e 93 25
e 103 25
e 105 25
e 108 25
e 117 25
e 128 25
e 129 25
e 132 25
e 133 25
e 137 25
e 146 25
e 151 25
e 160 25
e 165 25
e 166 25
e 177 25
e 181 25
e 188 25
e 196 25
e 27 26
e 28 26
e 31 26
e 34 26
e 35 26
e 38 26
e 42 26
e 44 26
e 48 26
e 58 26
e 60 26
e 65 26
e 66 26
e 76 26
e 88 26
e 90 26
e 91 26
e 103 26
e 104 26
e 105 26
e 110 26
e 112 26
e 116 26
e 119 26
e 126 26
e 130 26
e 136 26
e 139 26
e 140 26
e 145 26
e 149 26
e 152 26
e 159 26
e 161 26
e 174 26
e 176 26
e 180 26
e 182 26
e 183 26
e 189 26
e 190 26
e 195 26
e 197 26
e 199 26
e 200 26
e 28 27
e 31 27
e 37 27
e 41 27
e 45 27
e 52 27
e 54 27
e 57 27
e 63 27
e 64 27
e 65 27
e 72 27
e 76 27
e 78 27
e 86 27
e 92 27
e 94 27
e 97 27
e 98 27
e 99 27
e 100 27
e 107 27
e 108 27
e 110 27
e 116 27
e 125 27
e 127 27
e 136 27
e 144 27
e 159 27
e 180 27
e 183 27
e 185 27
e 186 27
e 188 27
e 192 27
e 193 27
e 31 28
e 41 28
e 43 28
e 50 28
e 60 28
e 64 28
e 66 28
e 98 28
e 100 28
e 101 28
e 102 28
e 107 28
e 112 28
e 113 28
e 115 28
e 116 28
e 117 28
e 120 28
e 127 28
e 138 28
e 141 28
e 143 28
e 147 28
e 150 28
e 155 28
e 178 28
e 187 28
e 194 28
e 197 28
e 33 29
e 37 29
e 41 29
e 49 29
e 53 29
e 57 29
e 64 29
e 69 29
e 74 29
e 93 29
e 94 29
e 95 29
e 100 29
e 107 29
e 110 29
e 117 29
e 121 29
e 129 29
e 130 29
e 136 29
e 139 29
e 143 29
e 152 29
e 156 29
e 158 29
e 161 29
e 170 29
e 174 29
e 175 29
e 177 29
e 180 29
e 189 29
e 194 29
e 195 29
e 198 29
e 200 29
e 31 30
e 37 30
e 70 30
e 74 30
e 77 30
e 81 30
e 82 30
e 91 30
e 93 30
e 98 30
e 101 30
e 104 30
e 114 30
e 136 30
e 142 30
e 146 30
e 150 30
e 153 30
e 168 30
e 174 30
e 185 30
e 186 30
e 196 30
e 199 30
e 37 31
e 39 31
e 55 31
e 62 31
e 66 31
e 67 31
e 72 31
e 75 31
e 77 31
e 82 31
e 95 31
e 100 31
e 110 31
e 112 31
e 113 31
e 118 31
e 120 31
e 129 31
e 135 31
e 139 31
e 141 31
e 148 31
e 154 31
e 159 31
e 166 31
e 167 31
e 168 31
e 171 31
e 172 31
e 178 31
e 181 31
e 182 31
e 191 31
e 196 31
e 197 31
e 199 31
e 200 31
e 36 32
e 37 32
e 40 32
e 56 32
e 63 32
e 67 32
e 69 32
e 73 32
e 85 32
e 93 32
e 104 32
e 110 32
e 128 32
e 129 32
e 138 32
e 145 32
e 152 32
e 155 32
e 157 32
e 166 32
e 168 32
e 173 32
e 186 32
e 188 32
e 189 32
e 35 33
e 41 33
e 48 33
e 51 33
e 54 33
e 55 33
e 64 33
e 65 33
e 67 33
e 69 33
e 73 33
e 81 33
e 82 33
e 84 33
e 86 33
e 87 33
e 95 33
e 120 33
e 122 33
e 128 33
e 131 33
e 137 33
e 139 33
e 145 33
e 152 33
e 162 33
e 167 33
e 173 33
e 177 33
e 180 33
e 187 33
e 190 33
e 191 33
e 193 33
e 39 34
e 43 34
e 46 34
e 48 34
e 50 34
e 51 34
e 56 34
e 59 34
e 60 34
e 61 34
e 63 34
e 70 34
e 78 34
e 91 34
e 102 34
e 107 34
e 111 34
e 112 34
e 116 34
e 118 34
e 119 34
e 124 34
e 126 34
e 127 34
e 132 34
e 134 34
e 145 34
e 160 34
e 168 34
e 172 34
e 175 34
e 181 34
e 185 34
e 186 34
e 191 34
e 197 34
e 37 35
e 39 35
e 48 35
e 52 35
e 55 35
e 61 35
e 65 35
e 66 35
e 67 35
e 71 35
e 84 35
e 86 35
e 88 35
e 89 35
e 103 35
e 104 35
e 113 35
e 119 35
e 126 35
e 129 35
e 136 35
e 143 35
e 146 35
e 148 35
e 149 35
e 158 35
e 161 35
e 173 35
e 174 35
e 177 35
e 182 35
e 183 35
e 189 35
e 190 35
e 192 35
e 195 35
e 45 36
e 47 36
e 54 36
e 55 36
e 61 36
e 64 36
e 65 36
e 69 36
e 76 36
e 77 36
e 79 36
e 80 36
e 89 36
e 96 36
e 98 36
e 105 36
e 108 36
e 113 36
e 131 36
e 132 36
e 139 36
e 140 36
e 141 36
e 145 36
e 147 36
e 150 36
e 151 36
e 153 36
e 157 36
e 162 36
e 163 36
e 174 36
e 177 36
e 179 36
e 181 36
e 183 36
e 185 36
e 188 36
e 189 36
e 190 36
e 193 36
e 198 36
e 44 37
e 54 37
e 55 37
e 56 37
e 57 37
e 61 37
e 62 37
e 67 37
e 75 37
e 76 37
e 81 37
e 83 37
e 92 37
e 94 37
e 98 37
e 102 37
e 104 37
e 111 37
e 116 37
e 117 37
e 120 37
e 121 37
e 124 37
e 131 37
e 135 37
e 147 37
e 156 37
e 158 37
e 163 37
e 164 37
e 165 37
e 166 37
e 175 37
e 176 37
e 180 37
e 187 37
e 188 37
e 190 37
e 41 38
e 45 38
e 48 38
e 53 38
e 54 38
e 56 38
e 71 38
e 75 38
e 77 38
e 79 38
e 81 38
e 82 38
e 83 38
e 85 38
e 90 38
e 92 38
e 93 38
e 95 38
e 97 38
e 99 38
e 107 38
e 116 38
e 118 38
e 123 38
e 126 38
e 127 38
e 131 38
e 138 38
e 141 38
e 143 38
e 153 38
e 158 38
e 162 38
e 164 38
e 168 38
e 173 38
e 185 38
e 196 38
e 200 38
e 40 39
e 42 39
e 49 39
e 55 39
e 57 39
e 63 39
e 66 39
e 72 39
e 78 39
e 79 39
e 80 39
e 83 39
e 85 39
e 91 39
e 93 39
e 99 39
e 106 39
e 111 39
e 114 39
e 125 39
e 128 39
e 129 39
e 136 39
e 139 39
e 142 39
e 148 39
e 151 39
e 152 39
e 153 39
e 166 39
e 168 39
e 174 39
e 181 39
e 193 39
e 200 39
e 48 40
e 50 40
e 57 40
e 62 40
e 65 40
e 69 40
e 71 40
e 72 40
e 74 40
e 84 40
e 88 40
e 98 40
e 99 40
e 104 40
e 113 40
e 120 40
e 127 40
e 129 40
e 135 40
e 137 40
e 144 40
e 146 40
e 150 40
e 153 40
e 165 40
e 168 40
e 178 40
e 179 40
e 180 40
e 185 40
e 191 40
e 193 40
e 196 40
e 198 40
e 200 40
e 46 41
e 53 41
e 60 41
e 64 41
e 74 41
e 75 41
e 79 41
e 89 41
e 93 41
e 95 41
e 109 41
e 114 41
e 116 41
e 117 41
e 118 41
e 119 41
e 122 41
e 124 41
e 128 41
e 136 41
e 139 41
e 140 41
e 141 41
e 144 41
e 148 41
e 168 41
e 169 41
e 180 41
e 184 41
e 185 41
e 191 41
e 196 41
e 53 42
e 60 42
e 62 42
e 69 42
e 73 42
e 75 42
e 76 42
e 83 42
e 85 42
e 95 42
e 104 42
e 106 42
e 109 42
e 122 42
e 123 42
e 127 42
e 130 42
e 140 42
e 149 42
e 163 42
e 164 42
e 174 42
e 175 42
e 178 42
e 184 42
e 186 42
e 189 42
e 197 42
e 45 43
e 46 43
e 53 43
e 54 43
e 60 43
e 69 43
e 70 43
e 71 43
e 72 43
e 73 43
e 77 43
e 79 43
e 81 43
e 83 43
e 87 43
e 92 43
e 94 43
e 95 43
e 101 43
e 102 43
e 109 43
e 110 43
e 111 43
e 127 43
e 131 43
e 135 43
e 137 43
e 138 43
e 142 43
e 144 43
e 154 43
e 162 43
e 168 43
e 174 43
e 191 43
e 193 43
e 195 43
e 200 43
e 46 44
e 53 44
e 59 44
e 65 44
e 66 44
e 78 44
e 82 44
e 88 44
e 106 44
e 107 44
e 130 44
e 131 44
e 133 44
e 148 44
e 149 44
e 159 44
e 163 44
e 167 44
e 174 44
e 192 44
e 46 45
e 48 45
e 49 45
e 60 45
e 72 45
e 77 45
e 83 45
e 84 45
e 89 45
e 93 45
e 99 45
e 104 45
e 113 45
e 125 45
e 126 45
e 136 45
e 138 45
e 139 45
e 145 45
e 149 45
e 153 45
e 161 45
e 165 45
e 173 45
e 174 45
e 176 45
e 178 45
e 193 45
e 49 46
e 53 46
e 60 46
e 61 46
e 73 46
e 76 46
e 79 46
e 85 46
e 94 46
e 96 46
e 97 46
e 114 46
e 128 46
e 136 46
e 139 46
e 146 46
e 148 46
e 153 46
e 156 46
e 157 46
e 159 46
e 160 46
e 173 46
e 181 46
e 185 46
e 194 46
e 197 46
e 64 47
e 68 47
e 71 47
e 80 47
e 82 47
e 90 47
e 95 47
e 97 47
e 105 47
e 106 47
e 113 47
e 126 47
e 131 47
e 132 47
e 140 47
e 141 47
e 146 47
e 147 47
e 160 47
e 166 47
e 177 47
e 197 47
e 199 47
e 200 47
e 49 48
e 51 48
e 58 48
e 73 48
e 89 48
e 92 48
e 96 48
e 105 48
e 106 48
e 111 48
e 114 48
e 128 48
e 133 48
e 134 48
e 135 48
e 141 48
e 142 48
e 145 48
e 146 48
e 151 48
e 153 48
e 155 48
e 164 48
e 175 48
e 177 48
e 182 48
e 191 48
e 192 48
e 193 48
e 195 48
e 53 49
e 54 49
e 55 49
e 62 49
e 63 49
e 65 49
e 71 49
e 79 49
e 85 49
e 88 49
e 98 49
e 105 49
e 119 49
e 123 49
e 124 49
e 127 49
e 131 49
e 136 49
e 139 49
e 140 49
e 150 49
e 161 49
e 172 49
e 179 49
e 182 49
e 198 49
e 200 49
e 53 50
e 57 50
e 59 50
e 61 50
e 73 50
e 75 50
e 83 50
e 91 50
e 100 50
e 102 50
e 103 50
e 106 50
e 113 50
e 114 50
e 121 50
e 134 50
e 138 50
e 140 50
e 143 50
e 144 50
e 145 50
e 148 50
e 149 50
e 153 50
e 158 50
e 165 50
e 172 50
e 175 50
e 178 50
e 191 50
e 53 51
e 56 51
e 57 51
e 58 51
e 61 51
e 64 51
e 72 51
e 89 51
e 99 51
e 108 51
e 111 51
e 113 51
e 118 51
e 122 51
e 125 51
e 144 51
e 147 51
e 156 51
e 165 51
e 167 51
e 176 51
e 179 51
e 183 51
e 189 51
e 190 51
e 196 51
e 200 51
e 53 52
e 59 52
e 61 52
e 64 52
e 71 52
e 77 52
e 90 52
e 95 52
e 96 52
e 97 52
e 101 52
e 105 52
e 109 52
e 111 52
e 120 52
e 122 52
e 123 52
e 126 52
e 127 52
e 134 52
e 144 52
e 148 52
e 149 52
e 150 52
e 152 52
e 153 52
e 159 52
e 169 52
e 176 52
e 182 52
e 184 52
e 190 52
e 193 52
e 194 52
e 62 53
e 65 53
e 69 53
e 71 53
e 72 53
e 73 53
e 78 53
e 82 53
e 85 53
e 90 53
e 92 53
e 97 53
e 102 53
e 112 53
e 132 53
e 149 53
e 156 53
e 171 53
e 191 53
e 192 53
e 55 54
e 58 54
e 62 54
e 63 54
e 65 54
e 67 54
e 69 54
e 75 54
e 78 54
e 81 54
e 84 54
e 86 54
e 104 54
e 109 54
e 122 54
e 133 54
e 135 54
e 136 54
e 138 54
e 140 54
e 156 54
e 167 54
e 169 54
e 173 54
e 174 54
e 184 54
e 187 54
e 188 54
e 190 54
e 196 54
e 61 55
e 62 55
e 68 55
e 74 55
e 76 55
e 82 55
e 101 55
e 104 55
e 129 55
e 136 55
e 153 55
e 159 55
e 164 55
e 165 55
e 168 55
e 171 55
e 179 55
e 183 55
e 189 55
e 195 55
e 197 55
e 64 56
e 65 56
e 69 56
e 70 56
e 84 56
e 86 56
e 98 56
e 99 56
e 102 56
e 103 56
e 115 56
e 118 56
e 124 56
e 129 56
e 130 56
e 140 56
e 142 56
e 143 56
e 145 56
e 146 56
e 151 56
e 154 56
e 166 56
e 178 56
e 180 56
e 186 56
e 191 56
e 195 56
e 197 56
e 66 57
e 69 57
e 74 57
e 77 57
e 79 57
e 82 57
e 85 57
e 89 57
e 90 57
e 91 57
e 94 57
e 95 57
e 116 57
e 125 57
e 130 57
e 138 57
e 142 57
e 146 57
e 151 57
e 158 57
e 160 57
e 166 57
e 170 57
e 179 57
e 181 57
e 182 57
e 183 57
e 194 57
e 198 57
e 200 57
e 72 58
e 86 58
e 96 58
e 110 58
e 111 58
e 112 58
e 113 58
e 118 58
e 130 58
e 140 58
e 146 58
e 147 58
e 148 58
e 152 58
e 154 58
e 160 58
e 161 58
e 162 58
e 165 58
e 172 58
e 174 58
e 175 58
e 176 58
e 178 58
e 179 58
e 184 58
e 61 59
e 73 59
e 78 59
e 81 59
e 87 59
e 92 59
e 100 59
e 102 59
e 103 59
e 104 59
e 107 59
e 109 59
e 113 59
e 114 59
e 122 59
e 126 59
e 127 59
e 128 59
e 136 59
e 140 59
e 151 59
e 158 59
e 172 59
e 175 59
e 184 59
e 187 59
e 194 59
e 64 60
e 67 60
e 75 60
e 76 60
e 86 60
e 88 60
e 93 60
e 94 60
e 101 60
e 103 60
e 105 60
e 108 60
e 112 60
e 113 60
e 115 60
e 117 60
e 120 60
e 121 60
e 130 60
e 133 60
e 134 60
e 156 60
e 164 60
e 171 60
e 176 60
e 180 60
e 183 60
e 189 60
e 191 60
e 192 60
e 193 60
e 198 60
e 72 61
e 73 61
e 76 61
e 84 61
e 88 61
e 90 61
e 91 61
e 95 61
e 97 61
e 103 61
e 107 61
e 109 61
e 110 61
e 113 61
e 122 61
e 129 61
e 130 61
e 141 61
e 142 61
e 144 61
e 150 61
e 151 61
e 154 61
e 168 61
e 173 61
e 189 61
e 191 61
e 192 61
e 196 61
e 198 61
e 63 62
e 64 62
e 76 62
e 77 62
e 90 62
e 99 62
e 100 62
e 104 62
e 121 62
e 123 62
e 139 62
e 143 62
e 144 62
e 156 62
e 164 62
e 171 62
e 177 62
e 178 62
e 187 62
e 195 62
e 197 62
e 199 62
e 200 62
e 64 63
e 67 63
e 68 63
e 72 63
e 76 63
e 86 63
e 87 63
e 99 63
e 106 63
e 119 63
e 121 63
e 123 63
e 137 63
e 150 63
e 152 63
e 154 63
e 156 63
e 162 63
e 168 63
e 171 63
e 173 63
e 177 63
e 178 63
e 180 63
e 195 63
e 200 63
e 65 64
e 68 64
e 69 64
e 73 64
e 77 64
e 83 64
e 89 64
e 94 64
e 97 64
e 98 64
e 102 64
e 103 64
e 106 64
e 114 64
e 125 64
e 134 64
e 141 64
e 147 64
e 148 64
e 152 64
e 155 64
e 170 64
e 172 64
e 173 64
e 182 64
e 192 64
e 194 64
e 69 65
e 81 65
e 85 65
e 86 65
e 87 65
e 88 65
e 90 65
e 91 65
e 93 65
e 94 65
e 95 65
e 96 65
e 97 65
e 103 65
e 111 65
e 113 65
e 117 65
e 120 65
e 125 65
e 126 65
e 127 65
e 134 65
e 142 65
e 143 65
e 145 65
e 147 65
e 158 65
e 167 65
e 168 65
e 171 65
e 172 65
e 174 65
e 188 65
e 193 65
e 198 65
e 70 66
e 77 66
e 78 66
e 85 66
e 94 66
e 102 66
e 115 66
e 116 66
e 120 66
e 121 66
e 123 66
e 128 66
e 129 66
e 130 66
e 137 66
e 139 66
e 144 66
e 149 66
e 155 66
e 157 66
e 160 66
e 164 66
e 168 66
e 172 66
e 174 66
e 176 66
e 177 66
e 182 66
e 183 66
e 186 66
e 188 66
e 197 66
e 198 66
e 69 67
e 74 67
e 78 67
e 80 67
e 81 67
e 82 67
e 85 67
e 89 67
e 90 67
e 92 67
e 95 67
e 106 67
e 111 67
e 115 67
e 116 67
e 118 67
e 119 67
e 120 67
e 123 67
e 134 67
e 135 67
e 139 67
e 143 67
e 152 67
e 153 67
e 159 67
e 176 67
e 188 67
e 195 67
e 199 67
e 200 67
e 69 68
e 78 68
e 81 68
e 82 68
e 83 68
e 85 68
e 87 68
e 95 68
e 98 68
e 100 68
e 105 68
e 109 68
e 111 68
e 116 68
e 128 68
e 132 68
e 137 68
e 148 68
e 155 68
e 162 68
e 163 68
e 164 68
e 178 68
e 180 68
e 184 68
e 185 68
e 196 68
e 197 68
e 70 69
e 73 69
e 77 69
e 80 69
e 85 69
e 88 69
e 90 69
e 92 69
e 94 69
e 97 69
e 104 69
e 109 69
e 118 69
e 121 69
e 127 69
e 134 69
e 140 69
e 141 69
e 152 69
e 157 69
e 168 69
e 172 69
e 177 69
e 180 69
e 182 69
e 184 69
e 197 69
e 200 69
e 76 70
e 78 70
e 86 70
e 88 70
e 96 70
e 113 70
e 114 70
e 116 70
e 118 70
e 126 70
e 128 70
e 143 70
e 148 70
e 160 70
e 167 70
e 175 70
e 198 70
e 199 70
e 74 71
e 76 71
e 82 71
e 97 71
e 98 71
e 100 71
e 108 71
e 113 71
e 121 71
e 126 71
e 131 71
e 133 71
e 135 71
e 136 71
e 138 71
e 140 71
e 150 71
e 151 71
e 160 71
e 166 71
e 169 71
e 175 71
e 179 71
e 182 71
e 184 71
e 185 71
e 192 71
e 199 71
e 74 72
e 80 72
e 85 72
e 95 72
e 102 72
e 104 72
e 105 72
e 106 72
e 109 72
e 110 72
e 112 72
e 113 72
e 117 72
e 118 72
e 125 72
e 135 72
e 136 72
e 140 72
e 142 72
e 143 72
e 144 72
e 149 72
e 152 72
e 161 72
e 164 72
e 169 72
e 170 72
e 172 72
e 173 72
e 178 72
e 182 72
e 190 72
e 192 72
e 193 72
e 199 72
e 74 73
e 75 73
e 76 73
e 78 73
e 87 73
e 92 73
e 99 73
e 101 73
e 105 73
e 111 73
e 113 73
e 119 73
e 120 73
e 122 73
e 124 73
e 133 73
e 145 73
e 146 73
e 152 73
e 154 73
e 157 73
e 159 73
e 161 73
e 164 73
e 179 73
e 188 73
e 190 73
e 191 73
e 194 73
e 195 73
e 196 73
e 76 74
e 77 74
e 78 74
e 80 74
e 84 74
e 96 74
e 97 74
e 102 74
e 103 74
e 105 74
e 112 74
e 117 74
e 121 74
e 123 74
e 134 74
e 140 74
e 142 74
e 147 74
e 148 74
e 150 74
e 152 74
e 159 74
e 161 74
e 162 74
e 164 74
e 165 74
e 167 74
e 169 74
e 177 74
e 178 74
e 179 74
e 198 74
e 200 74
e 77 75
e 79 75
e 80 75
e 82 75
e 91 75
e 93 75
e 102 75
e 109 75
e 111 75
e 112 75
e 113 75
e 121 75
e 125 75
e 129 75
e 151 75
e 157 75
e 165 75
e 168 75
e 169 75
e 177 75
e 180 75
e 184 75
e 187 75
e 188 75
e 199 75
e 83 76
e 94 76
e 97 76
e 102 76
e 120 76
e 124 76
e 134 76
e 139 76
e 155 76
e 160 76
e 162 76
e 166 76
e 168 76
e 172 76
e 174 76
e 176 76
e 178 76
e 185 76
e 186 76
e 190 76
e 193 76
e 194 76
e 199 76
e 83 77
e 89 77
e 101 77
e 102 77
e 103 77
e 113 77
e 116 77
e 117 77
e 120 77
e 124 77
e 162 77
e 166 77
e 173 77
e 174 77
e 179 77
e 180 77
e 181 77
e 185 77
e 195 77
e 80 78
e 84 78
e 89 78
e 92 78
e 93 78
e 99 78
e 100 78
e 106 78
e 107 78
e 108 78
e 109 78
e 118 78
e 119 78
e 123 78
e 132 78
e 137 78
e 138 78
e 140 78
e 144 78
e 148 78
e 150 78
e 152 78
e 154 78
e 167 78
e 172 78
e 179 78
e 180 78
e 182 78
e 183 78
e 186 78
e 187 78
e 81 79
e 82 79
e 83 79
e 86 79
e 89 79
e 92 79
e 106 79
e 107 79
e 110 79
e 116 79
e 119 79
e 123 79
e 128 79
e 147 79
e 183 79
e 96 80
e 100 80
e 101 80
e 105 80
e 109 80
e 116 80
e 117 80
e 133 80
e 144 80
e 146 80
e 148 80
e 151 80
e 159 80
e 161 80
e 165 80
e 168 80
e 171 80
e 175 80
e 182 80
e 183 80
e 186 80
e 187 80
e 82 81
e 84 81
e 88 81
e 91 81
e 94 81
e 95 81
e 105 81
e 109 81
e 112 81
e 124 81
e 141 81
e 143 81
e 144 81
e 150 81
e 164 81
e 172 81
e 176 81
e 180 81
e 181 81
e 186 81
e 190 81
e 83 82
e 88 82
e 91 82
e 94 82
e 96 82
e 97 82
e 100 82
e 107 82
e 112 82
e 115 82
e 118 82
e 120 82
e 122 82
e 132 82
e 135 82
e 145 82
e 154 82
e 155 82
e 158 82
e 167 82
e 168 82
e 176 82
e 182 82
e 183 82
e 191 82
e 197 82
e 198 82
e 84 83
e 87 83
e 97 83
e 98 83
e 101 83
e 107 83
e 112 83
e 113 83
e 127 83
e 136 83
e 137 83
e 141 83
e 145 83
e 146 83
e 148 83
e 157 83
e 163 83
e 164 83
e 170 83
e 175 83
e 176 83
e 178 83
e 179 83
e 189 83
e 191 83
e 196 83
e 85 84
e 89 84
e 94 84
e 98 84
e 100 84
e 114 84
e 120 84
e 130 84
e 132 84
e 134 84
e 136 84
e 143 84
e 153 84
e 173 84
e 186 84
e 188 84
e 193 84
e 86 85
e 90 85
e 105 85
e 111 85
e 116 85
e 117 85
e 124 85
e 130 85
e 143 85
e 144 85
e 149 85
e 152 85
e 157 85
e 168 85
e 183 85
e 188 85
e 191 85
e 195 85
e 100 86
e 107 86
e 112 86
e 123 86
e 132 86
e 154 86
e 158 86
e 166 86
e 186 86
e 189 86
e 190 86
e 193 86
e 196 86
e 200 86
e 88 87
e 89 87
e 96 87
e 113 87
e 125 87
e 126 87
e 127 87
e 130 87
e 135 87
e 141 87
e 150 87
e 152 87
e 164 87
e 169 87
e 171 87
e 173 87
e 178 87
e 183 87
e 190 87
e 197 87
e 93 88
e 94 88
e 95 88
e 98 88
e 102 88
e 104 88
e 125 88
e 135 88
e 141 88
e 142 88
e 143 88
e 147 88
e 152 88
e 157 88
e 163 88
e 173 88
e 178 88
e 179 88
e 184 88
e 188 88
e 197 88
e 200 88
e 98 89
e 100 89
e 105 89
e 120 89
e 123 89
e 132 89
e 133 89
e 136 89
e 155 89
e 158 89
e 162 89
e 163 89
e 166 89
e 170 89
e 171 89
e 176 89
e 181 89
e 182 89
e 185 89
e 188 89
e 192 89
e 99 90
e 114 90
e 121 90
e 129 90
e 130 90
e 139 90
e 141 90
e 144 90
e 147 90
e 161 90
e 162 90
e 164 90
e 165 90
e 172 90
e 175 90
e 178 90
e 180 90
e 185 90
e 198 90
e 100 91
e 102 91
e 112 91
e 116 91
e 117 91
e 130 91
e 133 91
e 134 91
e 135 91
e 136 91
e 142 91
e 146 91
e 148 91
e 155 91
e 158 91
e 161 91
e 167 91
e 170 91
e 174 91
e 175 91
e 189 91
e 190 91
e 195 91
e 197 91
e 198 91
e 200 91
e 100 92
e 107 92
e 110 92
e 113 92
e 119 92
e 125 92
e 129 92
e 133 92
e 136 92
e 148 92
e 156 92
e 167 92
e 169 92
e 171 92
e 177 92
e 182 92
e 185 92
e 196 92
e 94 93
e 95 93
e 97 93
e 98 93
e 104 93
e 107 93
e 128 93
e 131 93
e 154 93
e 156 93
e 159 93
e 169 93
e 172 93
e 173 93
e 176 93
e 177 93
e 180 93
e 182 93
e 188 93
e 191 93
e 192 93
e 197 93
e 200 93
e 112 94
e 113 94
e 117 94
e 119 94
e 120 94
e 121 94
e 122 94
e 131 94
e 135 94
e 136 94
e 137 94
e 138 94
e 140 94
e 141 94
e 143 94
e 149 94
e 150 94
e 155 94
e 157 94
e 158 94
e 159 94
e 169 94
e 173 94
e 179 94
e 183 94
e 190 94
e 196 94
e 197 94
e 200 94
e 96 95
e 99 95
e 108 95
e 121 95
e 126 95
e 133 95
e 134 95
e 142 95
e 143 95
e 146 95
e 159 95
e 166 95
e 181 95
e 189 95
e 191 95
e 199 95
e 105 96
e 109 96
e 116 96
e 119 96
e 120 96
e 125 96
e 134 96
e 149 96
e 151 96
e 163 96
e 175 96
e 177 96
e 181 96
e 193 96
e 194 96
e 196 96
e 100 97
e 102 97
e 118 97
e 120 97
e 123 97
e 130 97
e 131 97
e 137 97
e 138 97
e 141 97
e 145 97
e 146 97
e 159 97
e 161 97
e 162 97
e 170 97
e 174 97
e 179 97
e 182 97
e 186 97
e 189 97
e 193 97
e 199 97
e 105 98
e 110 98
e 118 98
e 120 98
e 127 98
e 129 98
e 132 98
e 145 98
e 151 98
e 155 98
e 160 98
e 163 98
e 164 98
e 165 98
e 166 98
e 168 98
e 187 98
e 200 98
e 106 99
e 114 99
e 120 99
e 125 99
e 130 99
e 136 99
e 138 99
e 142 99
e 152 99
e 157 99
e 164 99
e 166 99
e 169 99
e 170 99
e 184 99
e 185 99
e 187 99
e 194 99
e 197 99
e 198 99
e 199 99
e 109 100
e 113 100
e 138 100
e 139 100
e 153 100
e 164 100
e 181 100
e 184 100
e 193 100
e 200 100
e 107 101
e 109 101
e 114 101
e 118 101
e 137 101
e 139 101
e 144 101
e 151 101
e 155 101
e 170 101
e 184 101
e 193 101
e 195 101
e 198 101
e 199 101
e 107 102
e 113 102
e 116 102
e 122 102
e 123 102
e 137 102
e 139 102
e 140 102
e 142 102
e 148 102
e 156 102
e 157 102
e 159 102
e 166 102
e 173 102
e 179 102
e 186 102
e 188 102
e 189 102
e 190 102
e 196 102
e 199 102
e 200 102
e 112 103
e 115 103
e 120 103
e 129 103
e 136 103
e 141 103
e 144 103
e 171 103
e 183 103
e 187 103
e 192 103
e 197 103
e 115 104
e 121 104
e 123 104
e 130 104
e 139 104
e 146 104
e 147 104
e 148 104
e 166 104
e 169 104
e 177 104
e 181 104
e 187 104
e 192 104
e 197 104
e 108 105
e 109 105
e 124 105
e 125 105
e 131 105
e 135 105
e 144 105
e 145 105
e 154 105
e 159 105
e 160 105
e 162 105
e 167 105
e 169 105
e 174 105
e 177 105
e 182 105
e 188 105
e 193 105
e 113 106
e 115 106
e 116 106
e 123 106
e 134 106
e 135 106
e 138 106
e 139 106
e 140 106
e 144 106
e 145 106
e 147 106
e 157 106
e 158 106
e 167 106
e 170 106
e 176 106
e 179 106
e 180 106
e 184 106
e 186 106
e 187 106
e 192 106
e 196 106
e 199 106
e 111 107
e 115 107
e 116 107
e 124 107
e 131 107
e 141 107
e 149 107
e 152 107
e 158 107
e 161 107
e 178 107
e 184 107
e 190 107
e 194 107
e 195 107
e 200 107
e 109 108
e 110 108
e 115 108
e 116 108
e 131 108
e 133 108
e 140 108
e 145 108
e 148 108
e 154 108
e 155 108
e 162 108
e 166 108
e 173 108
e 174 108
e 175 108
e 180 108
e 181 108
e 197 108
e 110 109
e 111 109
e 116 109
e 128 109
e 131 109
e 134 109
e 135 109
e 137 109
e 142 109
e 148 109
e 150 109
e 161 109
e 164 109
e 168 109
e 172 109
e 173 109
e 175 109
e 179 109
e 181 109
e 182 109
e 183 109
e 191 109
e 192 109
e 198 109
e 111 110
e 114 110
e 115 110
e 117 110
e 121 110
e 122 110
e 126 110
e 132 110
e 136 110
e 162 110
e 165 110
e 166 110
e 171 110
e 172 110
e 176 110
e 185 110
e 190 110
e 195 110
e 199 110
e 200 110
e 112 111
e 115 111
e 118 111
e 135 111
e 148 111
e 153 111
e 156 111
e 158 111
e 163 111
e 178 111
e 183 111
e 187 111
e 188 111
e 195 111
e 198 111
e 121 112
e 128 112
e 133 112
e 134 112
e 136 112
e 137 112
e 145 112
e 159 112
e 171 112
e 172 112
e 173 112
e 174 112
e 177 112
e 178 112
e 192 112
e 196 112
e 116 113
e 118 113
e 128 113
e 133 113
e 146 113
e 152 113
e 153 113
e 165 113
e 174 113
e 177 113
e 179 113
e 183 113
e 187 113
e 191 113
e 199 113
e 116 114
e 117 114
e 118 114
e 119 114
e 121 114
e 123 114
e 126 114
e 130 114
e 135 114
e 138 114
e 142 114
e 146 114
e 149 114
e 151 114
e 157 114
e 165 114
e 170 114
e 177 114
e 189 114
e 192 114
e 195 114
e 200 114
e 118 115
e 120 115
e 126 115
e 129 115
e 137 115
e 140 115
e 142 115
e 143 115
e 153 115
e 161 115
e 167 115
e 174 115
e 179 115
e 180 115
e 184 115
e 191 115
e 117 116
e 129 116
e 131 116
e 133 116
e 135 116
e 136 116
e 141 116
e 148 116
e 150 116
e 152 116
e 162 116
e 164 116
e 168 116
e 172 116
e 180 116
e 184 116
e 189 116
e 191 116
e 198 116
e 119 117
e 123 117
e 128 117
e 132 117
e 139 117
e 143 117
e 155 117
e 160 117
e 181 117
e 182 117
e 189 117
e 199 117
e 123 118
e 124 118
e 125 118
e 129 118
e 140 118
e 146 118
e 151 118
e 153 118
e 156 118
e 170 118
e 176 118
e 181 118
e 182 118
e 191 118
e 192 118
e 193 118
e 199 118
e 200 118
e 120 119
e 124 119
e 125 119
e 126 119
e 129 119
e 139 119
e 143 119
e 148 119
e 151 119
e 152 119
e 156 119
e 161 119
e 164 119
e 166 119
e 173 119
e 174 119
e 188 119
e 200 119
e 129 120
e 132 120
e 140 120
e 149 120
e 153 120
e 155 120
e 161 120
e 162 120
e 165 120
e 171 120
e 172 120
e 185 120
e 126 121
e 128 121
e 130 121
e 135 121
e 148 121
e 161 121
e 162 121
e 163 121
e 167 121
e 172 121
e 181 121
e 182 121
e 183 121
e 195 121
e 197 121
e 198 121
e 134 122
e 136 122
e 137 122
e 151 122
e 152 122
e 158 122
e 166 122
e 167 122
e 170 122
e 178 122
e 181 122
e 182 122
e 185 122
e 188 122
e 197 122
e 124 123
e 125 123
e 130 123
e 134 123
e 140 123
e 142 123
e 143 123
e 144 123
e 146 123
e 147 123
e 148 123
e 150 123
e 161 123
e 165 123
e 167 123
e 171 123
e 173 123
e 176 123
e 182 123
e 128 124
e 131 124
e 132 124
e 136 124
e 139 124
e 153 124
e 155 124
e 160 124
e 161 124
e 167 124
e 170 124
e 176 124
e 178 124
e 183 124
e 189 124
e 127 125
e 133 125
e 135 125
e 141 125
e 151 125
e 157 125
e 163 125
e 165 125
e 167 125
e 168 125
e 170 125
e 175 125
e 181 125
e 192 125
e 199 125
e 127 126
e 128 126
e 129 126
e 130 126
e 140 126
e 141 126
e 148 126
e 150 126
e 151 126
e 153 126
e 162 126
e 164 126
e 167 126
e 172 126
e 178 126
e 184 126
e 185 126
e 190 126
e 193 126
e 197 126
e 199 126
e 200 126
e 133 127
e 140 127
e 145 127
e 147 127
e 148 127
e 150 127
e 155 127
e 157 127
e 160 127
e 161 127
e 162 127
e 166 127
e 169 127
e 175 127
e 177 127
e 185 127
e 187 127
e 192 127
e 193 127
e 196 127
e 138 128
e 142 128
e 147 128
e 153 128
e 156 128
e 158 128
e 160 128
e 161 128
e 170 128
e 172 128
e 173 128
e 179 128
e 181 128
e 197 128
e 133 129
e 134 129
e 135 129
e 145 129
e 168 129
e 170 129
e 178 129
e 180 129
e 181 129
e 182 129
e 189 129
e 134 130
e 135 130
e 140 130
e 143 130
e 155 130
e 156 130
e 158 130
e 161 130
e 178 130
e 181 130
e 198 130
e 137 131
e 149 131
e 155 131
e 156 131
e 164 131
e 165 131
e 173 131
e 183 131
e 184 131
e 187 131
e 191 131
e 199 131
e 134 132
e 144 132
e 149 132
e 159 132
e 160 132
e 170 132
e 174 132
e 178 132
e 180 132
e 186 132
e 197 132
e 199 132
e 138 133
e 143 133
e 144 133
e 145 133
e 165 133
e 166 133
e 169 133
e 172 133
e 177 133
e 182 133
e 189 133
e 194 133
e 195 133
e 196 133
e 199 133
e 136 134
e 149 134
e 150 134
e 151 134
e 156 134
e 160 134
e 169 134
e 170 134
e 174 134
e 175 134
e 179 134
e 181 134
e 187 134
e 188 134
e 189 134
e 195 134
e 140 135
e 153 135
e 164 135
e 172 135
e 173 135
e 174 135
e 179 135
e 197 135
e 199 135
e 200 135
e 144 136
e 145 136
e 148 136
e 153 136
e 155 136
e 159 136
e 166 136
e 177 136
e 188 136
e 190 136
e 192 136
e 200 136
e 139 137
e 146 137
e 150 137
e 158 137
e 159 137
e 162 137
e 169 137
e 171 137
e 173 137
e 175 137
e 187 137
e 188 137
e 190 137
e 192 137
e 194 137
e 139 138
e 147 138
e 152 138
e 162 138
e 175 138
e 177 138
e 178 138
e 181 138
e 185 138
e 186 138
e 187 138
e 188 138
e 198 138
e 147 139
e 158 139
e 162 139
e 169 139
e 170 139
e 181 139
e 183 139
e 185 139
e 186 139
e 142 140
e 144 140
e 146 140
e 148 140
e 149 140
e 155 140
e 157 140
e 164 140
e 172 140
e 173 140
e 178 140
e 189 140
e 192 140
e 196 140
e 197 140
e 199 140
e 152 141
e 153 141
e 160 141
e 163 141
e 165 141
e 168 141
e 174 141
e 190 141
e 198 141
e 153 142
e 155 142
e 156 142
e 159 142
e 167 142
e 168 142
e 174 142
e 184 142
e 188 142
e 189 142
e 192 142
e 193 142
e 196 142
e 145 143
e 149 143
e 150 143
e 164 143
e 165 143
e 172 143
e 173 143
e 174 143
e 176 143
e 177 143
e 183 143
e 197 143
e 148 144
e 149 144
e 152 144
e 155 144
e 160 144
e 162 144
e 165 144
e 170 144
e 171 144
e 178 144
e 183 144
e 187 144
e 191 144
e 193 144
e 194 144
e 195 144
e 199 144
e 152 145
e 158 145
e 160 145
e 168 145
e 175 145
e 184 145
e 187 145
e 191 145
e 194 145
e 196 145
e 150 146
e 152 146
e 159 146
e 170 146
e 175 146
e 188 146
e 195 146
e 196 146
e 151 147
e 152 147
e 154 147
e 155 147
e 185 147
e 192 147
e 195 147
e 200 147
e 151 148
e 156 148
e 157 148
e 163 148
e 169 148
e 181 148
e 183 148
e 187 148
e 188 148
e 189 148
e 196 148
e 150 149
e 153 149
e 158 149
e 161 149
e 162 149
e 164 149
e 173 149
e 174 149
e 180 149
e 183 149
e 186 149
e 189 149
e 191 149
e 192 149
e 194 149
e 198 149
e 200 149
e 161 150
e 164 150
e 167 150
e 170 150
e 185 150
e 195 150
e 200 150
e 155 151
e 158 151
e 165 151
e 166 151
e 179 151
e 180 151
e 189 151
e 190 151
e 191 151
e 195 151
e 162 152
e 170 152
e 173 152
e 176 152
e 177 152
e 185 152
e 186 152
e 188 152
e 195 152
e 196 152
e 171 153
e 173 153
e 180 153
e 155 154
e 160 154
e 165 154
e 167 154
e 169 154
e 179 154
e 182 154
e 187 154
e 189 154
e 191 154
e 193 154
e 197 154
e 198 154
e 160 155
e 171 155
e 174 155
e 176 155
e 177 155
e 178 155
e 183 155
e 185 155
e 190 155
e 163 156
e 167 156
e 172 156
e 173 156
e 179 156
e 185 156
e 197 156
e 198 156
e 199 156
e 160 157
e 161 157
e 170 157
e 173 157
e 182 157
e 183 157
e 187 157
e 194 157
e 196 157
e 162 158
e 163 158
e 164 158
e 174 158
e 175 158
e 184 158
e 193 158
e 199 158
e 200 158
e 168 159
e 169 159
e 171 159
e 172 159
e 178 159
e 179 159
e 187 159
e 190 159
e 193 159
e 200 159
e 168 160
e 170 160
e 177 160
e 178 160
e 180 160
e 185 160
e 192 160
e 200 160
e 165 161
e 166 161
e 168 161
e 173 161
e 191 161
e 195 161
e 197 161
e 168 162
e 174 162
e 176 162
e 179 162
e 181 162
e 170 163
e 174 163
e 180 163
e 185 163
e 165 164
e 169 164
e 175 164
e 177 164
e 179 164
e 191 164
e 192 164
e 193 164
e 175 165
e 177 165
e 178 165
e 181 165
e 187 165
e 189 165
e 200 165
e 172 166
e 182 166
e 183 166
e 189 166
e 193 166
e 194 166
e 173 167
e 189 167
e 190 167
e 192 167
e 171 168
e 183 168
e 196 168
e 170 169
e 171 169
e 174 169
e 182 169
e 187 169
e 190 169
e 194 169
e 196 169
e 198 169
e 186 170
e 187 170
e 192 170
e 193 170
e 198 170
e 175 171
e 176 171
e 197 171
e 200 171
e 183 172
e 186 172
e 193 172
e 174 173
e 176 173
e 177 173
e 179 173
e 180 173
e 188 173
e 193 173
e 194 173
e 180 174
e 188 174
e 191 174
e 196 174
e 177 175
e 182 175
e 192 175
e 181 176
e 184 176
e 187 176
e 189 176
e 190 176
e 178 177
e 188 177
e 193 177
e 198 177
e 190 178
e 191 178
e 193 178
e 196 178
e 181 179
e 196 179
e 197 179
e 184 180
e 185 180
e 187 180
e 191 180
e 194 180
e 195 180
e 196 180
e 197 180
e 183 181
e 185 181
e 186 181
e 189 181
e 200 181
e 199 182
e 184 183
e 189 183
e 191 183
e 193 183
e 194 183
e 192 184
e 199 184
e 200 184
e 188 185
e 190 185
e 190 186
e 191 187
e 195 187
e 196 189
e 200 189
e 196 190
e 197 190
e 196 191
e 193 192
e 198 192
e 198 194
e 199 194
e 196 195
e 200 197
